# Solution for model count
# Objective value = 10
z#1 0
z#2 1
z#3 1
z#4 0
z#5 1
z#6 0
z#7 0
z#8 1
z#9 0
z#10 0
z#11 1
z#12 1
z#13 0
z#14 0
z#15 0
z#16 1
z#17 0
z#18 0
z#19 1
z#20 1
z#21 1
z#22 0
z#23 0
z#24 0
x#24 0
x#23 0
x#22 0
x#21 2458
x#20 490
x#19 945
x#18 0
x#17 0
x#16 88
x#15 0
x#14 0
x#13 0
x#12 81
x#11 3995
x#10 0
x#9 0
x#8 1146
x#7 0
x#6 0
x#5 312
x#4 0
x#3 52
x#2 433
x#1 0
